\* Diet_Problem *\
Minimize
OBJ: 6.79 Amy's_Thai_Pad_Thai + 0.463333333333 Fat_Free_Skim_Milk
 + 1.796 Fresh_Express_Chopped_Caesar_Salad_Kit
 + 0.463333333333 Kraft_Mac_&_Cheese
 + 3.8313953666 Salmon,_Rice,_and_Broccolis + 1.16026357773 Spinach_Scramble
Subject To
Calcium_(mg): 90 Amy's_Thai_Pad_Thai + 300 Fat_Free_Skim_Milk
 + 90 Fresh_Express_Chopped_Caesar_Salad_Kit + 110 Kraft_Mac_&_Cheese
 + 40.75 Salmon,_Rice,_and_Broccolis + 86.6752916667 Spinach_Scramble >= 9100
Energy_(calories): 410 Amy's_Thai_Pad_Thai + 80 Fat_Free_Skim_Milk
 + 160 Fresh_Express_Chopped_Caesar_Salad_Kit + 250 Kraft_Mac_&_Cheese
 + 322.5 Salmon,_Rice,_and_Broccolis + 161.666666667 Spinach_Scramble >= 14000
Iron_(mg): 3.9 Amy's_Thai_Pad_Thai
 + 0.9 Fresh_Express_Chopped_Caesar_Salad_Kit + 2.5 Kraft_Mac_&_Cheese
 + 1.15 Salmon,_Rice,_and_Broccolis + 2.64541666667 Spinach_Scramble >= 126
Potassium_(mg): 360 Amy's_Thai_Pad_Thai + 390 Fat_Free_Skim_Milk
 + 190 Fresh_Express_Chopped_Caesar_Salad_Kit + 330 Kraft_Mac_&_Cheese
 + 618.5 Salmon,_Rice,_and_Broccolis + 351.416666667 Spinach_Scramble >= 32900
Protein_(g): 12 Amy's_Thai_Pad_Thai + 8 Fat_Free_Skim_Milk
 + 3 Fresh_Express_Chopped_Caesar_Salad_Kit + 9 Kraft_Mac_&_Cheese
 + 27.5 Salmon,_Rice,_and_Broccolis + 13.0791666667 Spinach_Scramble >= 350
Sodium_(mg): 760 Amy's_Thai_Pad_Thai + 120 Fat_Free_Skim_Milk
 + 310 Fresh_Express_Chopped_Caesar_Salad_Kit + 560 Kraft_Mac_&_Cheese
 + 549.25 Salmon,_Rice,_and_Broccolis + 458.166666667 Spinach_Scramble
 <= 35000
Vitamin_D_(mcg): 100 Fat_Free_Skim_Milk + 12.3 Salmon,_Rice,_and_Broccolis
 + 2 Spinach_Scramble >= 140
Bounds
 1 <= Amy's_Thai_Pad_Thai <= 28
 1 <= Fat_Free_Skim_Milk <= 28
 1 <= Fresh_Express_Chopped_Caesar_Salad_Kit <= 28
 1 <= Kraft_Mac_&_Cheese <= 28
 1 <= Salmon,_Rice,_and_Broccolis <= 28
 1 <= Spinach_Scramble <= 28
End
